
  22    4
  10   10   10   10

   0   0   0   0   0   5 2 3 4 5 6 
   1  10  10  10  10   5 13 10 9 8 7 
   9  10  10  10  10   3 13 9 7 
  10  10  10  10  10   3 21 10 9 
   4  10  10  10  10   2 10 9 
   1  10  10  10  10   5 21 20 14 12 11 
   6  10  10  10  10   5 20 19 18 14 12 
   6  10  10  10  10   5 21 20 19 18 12 
   4  10  10  10  10   3 20 18 11 
   1  10  10  10  10   3 18 15 12 
  10  10  10  10  10   3 19 17 15 
   5  10  10  10  10   2 17 16 
   6  10  10  10  10   2 18 16 
   8  10  10  10  10   1 15 
   8  10  10  10  10   1 16 
   6  10  10  10  10   1 22
   7  10  10  10  10   1 22
   9  10  10  10  10   1 22
   7  10  10  10  10   1 22
   5  10  10  10  10   1 22
   9  10  10  10  10   1 22
   0   0   0   0   0   0 
